 20  5
  0  34  1   6  2  63  3  85  4  60
  0  11  1  65  2   4  3   1  4  73
  0  63  1  67  2   3  3  73  4 100
  0  22  1  46  2  88  3   1  4  66
  0  76  1   4  2  34  3   9  4  76
  0  20  1  22  2   7  3   3  4  28
  0  44  1  30  2  55  3  68  4  92
  0  29  1  89  2  12  3  96  4  71
  0  54  1  12  2  21  3  74  4   2
  0  62  1  96  2  61  3  79  4  53
  0  50  1  13  2  48  3  40  4  37
  0  89  1  69  2  57  3   1  4  70
  0  50  1  56  2   8  3  67  4  46
  0  32  1  24  2  23  3  87  4  62
  0  12  1  88  2  64  3  14  4  13
  0  59  1  78  2  95  3  59  4  48
  0  41  1  20  2  83  3  65  4  20
  0  94  1  48  2  26  3  93  4   3
  0  28  1  59  2  10  3  81  4  20
  0  66  1  33  2  34  3   8  4   5
